0 94 
1 100 
2 100 
3 98 
4 94 
5 94 
6 91 
7 88 
8 90 
9 84 
10 83 
11 83 
12 82 
13 82 
14 79 
15 78 
16 74 
17 79 
18 72 
19 66 
20 68 
21 62 
22 58 
23 55 
24 55 
25 55 
26 56 
27 51 
28 53 
29 52 
30 53 
31 49 
32 51 
33 52 
34 50 
35 47 
36 45 
37 45 
38 45 
39 44 
40 43 
41 40 
42 37 
43 33 
44 32 
45 31 
46 29 
47 29 
48 28 
49 27 
50 25 
51 23 
52 24 
53 22 
54 20 
55 17 
56 19 
57 17 
58 16 
59 16 
60 12 
61 10 
62 8 
63 5 
64 2 
65 2 
66 1 
67 0 
68 0 

